NAME: tsp50_8
COMMENT: 50-tsp problem (Padberg/Rinaldi)
TYPE: TSP
DIMENSION: 50
EDGE_WEIGHT_TYPE : EUC_2D
NODE_COORD_SECTION
1 27 22
2 23 39
3 32 16
4 3 2
5 38 36
6 21 16
7 31 21
8 39 39
9 32 25
10 7 33
11 8 37
12 37 22
13 2 13
14 14 11
15 35 1
16 29 40
17 9 22
18 5 18
19 23 22
20 40 20
21 9 3
22 13 22
23 35 25
24 9 16
25 26 35
26 30 18
27 40 32
28 35 20
29 19 33
30 30 0
31 24 37
32 32 6
33 20 30
34 25 35
35 11 29
36 27 32
37 36 26
38 19 33
39 9 22
40 22 37
41 30 29
42 39 35
43 5 2
44 37 11
45 15 13
46 30 35
47 26 6
48 14 32
49 5 17
50 20 32
